34 3
5 9 7
0 0 0 0 32 2 3 4 5 6 7 8 9 10 11 12 13 14 15 16 17 18 19 20 21 22 23 24 25 26 27 28 29 30 31 32 33
3 1 3 2 2 5 13
4 1 3 1 1 29
3 1 2 2 2 30 11
3 1 1 1 1 9
5 5 2 2 1 34
3 3 1 2 2 11 21
5 2 2 1 1 26
2 2 1 1 2 30 12
4 3 1 1 1 30
4 4 2 2 1 34
4 3 2 1 2 28 16
6 3 3 2 1 28
5 2 2 1 1 34
2 5 2 2 2 21 32
4 2 3 1 1 34
4 3 1 2 1 34
5 4 3 1 1 32
4 4 3 1 1 34
2 3 2 1 1 34
3 3 3 2 1 34
4 5 2 1 1 34
3 5 2 2 1 34
4 2 1 2 1 34
5 1 3 1 1 34
4 3 1 2 1 34
3 4 2 2 1 28
2 2 2 1 1 34
6 2 3 2 1 34
3 4 3 2 1 34
5 5 1 2 1 34
2 2 3 1 1 34
3 2 3 1 1 34
0 0 0 0 0
